//Dat File

outFile="MPVSBPP_SET1_IT200_ITV1_NT2_TS3_WT1_VT1_REP6";
m=200;
o=96;
p=3;
numVTypes=3;

demand = [3, 1, 7, 11, 7, 8, 11, 7, 1, 10, 3, 4, 3, 5, 11, 10, 9, 6, 4, 6, 10, 8, 8, 7, 8, 11, 10, 4, 1, 1, 2, 7, 10, 6, 1, 4, 1, 11, 6, 2, 5, 6, 1, 8, 4, 4, 11, 3, 10, 11, 11, 5, 1, 1, 4, 3, 4, 8, 3, 4, 10, 9, 6, 6, 6, 4, 7, 3, 6, 1, 10, 11, 7, 4, 8, 6, 7, 3, 11, 2, 8, 4, 8, 3, 4, 11, 5, 7, 9, 4, 10, 1, 5, 9, 3, 11, 3, 3, 10, 1, 3, 9, 2, 11, 6, 11, 1, 3, 5, 1, 7, 6, 5, 3, 11, 7, 7, 11, 10, 10, 3, 8, 6, 1, 6, 10, 8, 11, 11, 2, 6, 5, 5, 9, 3, 1, 6, 7, 11, 10, 5, 7, 6, 6, 3, 11, 11, 3, 9, 6, 19, 17, 15, 14, 18, 12, 15, 14, 17, 13, 19, 15, 18, 19, 18, 12, 17, 18, 12, 14, 15, 13, 18, 12, 19, 16, 13, 14, 13, 12, 13, 17, 16, 18, 13, 12, 19, 14, 12, 19, 19, 18, 12, 15, 18, 17, 13, 18, 13, 18];
Depot_Cap = [30000, 30000, 30000];
Tarif = [10, 3, 7];
VeicVolume = [100, 150, 200];
VeicCost = [100, 120, 140];
VeicType = [1, 1, 1, 1, 1, 1, 1, 1, 1, 1, 1, 1, 1, 1, 1, 1, 1, 1, 1, 1, 1, 1, 1, 1, 1, 1, 1, 1, 1, 1, 1, 1, 2, 2, 2, 2, 2, 2, 2, 2, 2, 2, 2, 2, 2, 2, 2, 2, 2, 2, 2, 2, 2, 2, 2, 2, 2, 2, 2, 2, 2, 2, 2, 2, 3, 3, 3, 3, 3, 3, 3, 3, 3, 3, 3, 3, 3, 3, 3, 3, 3, 3, 3, 3, 3, 3, 3, 3, 3, 3, 3, 3, 3, 3, 3, 3];
Elect_vehicle = [[70, 100, 30], [70, 100, 30], [70, 100, 30], [70, 100, 30], [70, 100, 30], [70, 100, 30], [70, 100, 30], [70, 100, 30], [70, 100, 30], [70, 100, 30], [70, 100, 30], [70, 100, 30], [70, 100, 30], [70, 100, 30], [70, 100, 30], [70, 100, 30], [70, 100, 30], [70, 100, 30], [70, 100, 30], [70, 100, 30], [70, 100, 30], [70, 100, 30], [70, 100, 30], [70, 100, 30], [70, 100, 30], [70, 100, 30], [70, 100, 30], [70, 100, 30], [70, 100, 30], [70, 100, 30], [70, 100, 30], [70, 100, 30], [80, 120, 30], [80, 120, 30], [80, 120, 30], [80, 120, 30], [80, 120, 30], [80, 120, 30], [80, 120, 30], [80, 120, 30], [80, 120, 30], [80, 120, 30], [80, 120, 30], [80, 120, 30], [80, 120, 30], [80, 120, 30], [80, 120, 30], [80, 120, 30], [80, 120, 30], [80, 120, 30], [80, 120, 30], [80, 120, 30], [80, 120, 30], [80, 120, 30], [80, 120, 30], [80, 120, 30], [80, 120, 30], [80, 120, 30], [80, 120, 30], [80, 120, 30], [80, 120, 30], [80, 120, 30], [80, 120, 30], [80, 120, 30], [90, 140, 40], [90, 140, 40], [90, 140, 40], [90, 140, 40], [90, 140, 40], [90, 140, 40], [90, 140, 40], [90, 140, 40], [90, 140, 40], [90, 140, 40], [90, 140, 40], [90, 140, 40], [90, 140, 40], [90, 140, 40], [90, 140, 40], [90, 140, 40], [90, 140, 40], [90, 140, 40], [90, 140, 40], [90, 140, 40], [90, 140, 40], [90, 140, 40], [90, 140, 40], [90, 140, 40], [90, 140, 40], [90, 140, 40], [90, 140, 40], [90, 140, 40], [90, 140, 40], [90, 140, 40], [90, 140, 40], [90, 140, 40]];